NAME : single.5491.tour
COMMENT : Length = 5491
COMMENT : Found by LKH [Keld Helsgaun] Wed Dec 11 14:58:31 2024
TYPE : TOUR
DIMENSION : 34
TOUR_SECTION
1
29
33
34
31
30
32
28
25
23
24
26
27
22
21
20
19
4
3
2
5
8
9
7
10
11
12
6
13
14
15
16
18
17
-1
EOF
